
  32    4
  10   10   10   10

   0   0   0   0   0  27 2 4 7 8 9 10 11 12 13 14 15 16 17 18 19 20 21 22 23 24 25 26 27 28 29 30 31 
   9   0   1   1   1   1 3 
   1   0   4   2   7   1 5 
  10   1   5   0   4   1 6 
   6   0   5   6   6   1 32
   1   3   0   8   2   1 32
   3   6   0   6   3   1 32
   2   4   9   0   3   1 32
  10   0   6   5   8   1 32
   5   8   0   3   4   1 32
   1   3   3   0   7   1 32
   7   4   2   0   6   1 32
  10   3   2   0   4   1 32
  10   4   0   4   3   1 32
   7   3   0   4   4   1 32
   5   0   1   4   5   1 32
   7   4   3   4   0   1 32
   8   1   0   4   2   1 32
   2   0   5   1   3   1 32
   6   1   5   6   0   1 32
   2   5   4   0   6   1 32
   2   4   5   0   3   1 32
   1   3   2   0   3   1 32
   1   5   4   9   0   1 32
   7   0   4   3   4   1 32
   6   8   0   3   2   1 32
   8   0   4   2   6   1 32
  10   5   0   4   3   1 32
  10   6   6   0   2   1 32
  10   3   4   4   0   1 32
   2   4   0   1   3   1 32
   0   0   0   0   0   0 
